interdiction/MCDM/NO_CORR/GEN_FROM_60/19_ITEMS_1000_GEN/K5019W08.KNP.mps
NAME          BLANK   
ROWS
 N  OBJROW
 L  R0000000
COLUMNS
    C0000000  OBJROW     -628.         R0000000  254.        
    C0000001  OBJROW     -293.         R0000000  68.         
    C0000002  OBJROW     -948.         R0000000  432.        
    C0000003  OBJROW     -468.         R0000000  416.        
    C0000004  OBJROW     -708.         R0000000  264.        
    C0000005  OBJROW     -627.         R0000000  650.        
    C0000006  OBJROW     -225.         R0000000  538.        
    C0000007  OBJROW     -297.         R0000000  160.        
    C0000008  OBJROW     -26.          R0000000  96.         
    C0000009  OBJROW     -570.         R0000000  150.        
    C0000010  OBJROW     -363.         R0000000  654.        
    C0000011  OBJROW     -980.         R0000000  590.        
    C0000012  OBJROW     -230.         R0000000  171.        
    C0000013  OBJROW     -900.         R0000000  668.        
    C0000014  OBJROW     -494.         R0000000  675.        
    C0000015  OBJROW     -678.         R0000000  747.        
    C0000016  OBJROW     -837.         R0000000  504.        
    C0000017  OBJROW     -432.         R0000000  885.        
    C0000018  OBJROW     -882.         R0000000  534.        
RHS
    RHS       R0000000  15314.      
BOUNDS
 BV BOUND     C0000000  1.          
 BV BOUND     C0000001  1.          
 BV BOUND     C0000002  1.          
 BV BOUND     C0000003  1.          
 BV BOUND     C0000004  1.          
 BV BOUND     C0000005  1.          
 BV BOUND     C0000006  1.          
 BV BOUND     C0000007  1.          
 BV BOUND     C0000008  1.          
 BV BOUND     C0000009  1.          
 BV BOUND     C0000010  1.          
 BV BOUND     C0000011  1.          
 BV BOUND     C0000012  1.          
 BV BOUND     C0000013  1.          
 BV BOUND     C0000014  1.          
 BV BOUND     C0000015  1.          
 BV BOUND     C0000016  1.          
 BV BOUND     C0000017  1.          
 BV BOUND     C0000018  1.          
ENDATA
