interdiction/MCDM/NO_CORR/GEN_FROM_60/19_ITEMS_1000_GEN/K5019W08.KNP.txt
N 19
M 20
LC 19
LC 20
LC 21
LC 22
LC 23
LC 24
LC 25
LC 26
LC 27
LC 28
LC 29
LC 30
LC 31
LC 32
LC 33
LC 34
LC 35
LC 36
LC 37
LR 1
LR 2
LR 3
LR 4
LR 5
LR 6
LR 7
LR 8
LR 9
LR 10
LR 11
LR 12
LR 13
LR 14
LR 15
LR 16
LR 17
LR 18
LR 19
LR 20
LO -628
LO -293
LO -948
LO -468
LO -708
LO -627
LO -225
LO -297
LO -26
LO -570
LO -363
LO -980
LO -230
LO -900
LO -494
LO -678
LO -837
LO -432
LO -882
OS 1
IC 522
IC 289
IC 478
IC 646
IC 790
IC 447
IC 915
IC 248
IC 790
IC 702
IC 768
IC 598
IC 660
IC 708
IC 783
IC 785
IC 866
IC 80
IC 697
IB 5886
